# Solution for model GasLib-40
# Objective value = 1.1952111645180581e+01
loadshed[innode_1] 0
loadshed[innode_2] 0
loadshed[innode_3] 0
loadshed[innode_4] 0
loadshed[innode_5] 0
loadshed[innode_6] 0
loadshed[innode_7] 0
loadshed[innode_8] 0
loadshed[source_1] -3.2923080271424432e-01
loadshed[source_2] 0.0834510526553498
loadshed[source_3] 0.321382828332591
loadshed[sink_1] 0
loadshed[sink_2] 0
loadshed[sink_3] 0
loadshed[sink_4] 0
loadshed[sink_5] 0
loadshed[sink_6] 0
loadshed[sink_7] 0
loadshed[sink_8] 0
loadshed[sink_9] 0
loadshed[sink_10] 0
loadshed[sink_11] 0
loadshed[sink_12] 7.3082975664798455e-01
loadshed[sink_13] 0
loadshed[sink_14] 0
loadshed[sink_15] 0
loadshed[sink_16] 0
loadshed[sink_17] 0
loadshed[sink_18] 0
loadshed[sink_19] 0
loadshed[sink_20] 0
loadshed[sink_21] 0
loadshed[sink_22] 0
loadshed[sink_23] 0
loadshed[sink_24] 0
loadshed[sink_25] 0
loadshed[sink_26] 0
loadshed[sink_27] 0
loadshed[sink_28] 0
loadshed[sink_29] 0
flow[source_1,sink_3] 2.1013846683187342e+02
flow[innode_1,sink_16] 1.6354166666666970e+01
flow[innode_6,sink_13] 7.1963894930096481e+00
flow[sink_13,sink_14] -9.15777717365702
flow[sink_14,sink_10] -2.5511943840323738e+01
flow[sink_25,sink_26] 1.7464077148946012e+02
flow[sink_26,sink_9] 1.3523538835481949e+02
flow[sink_9,sink_18] 1.1888122168815282e+02
flow[sink_26,sink_4] 2.3051216467973749e+01
flow[sink_4,sink_20] -1.6793662658680820e+01
flow[sink_18,sink_6] 1.0252705502148615e+02
flow[sink_25,innode_8] -1.7743013349853706e+02
flow[sink_6,sink_7] 5.3464555021486092e+01
flow[sink_6,sink_22] 3.2708333333333641e+01
flow[sink_7,sink_24] 3.7110388354819420e+01
flow[sink_22,sink_1] 1.6354166666666970e+01
flow[sink_24,sink_21] 2.0756221688152756e+01
flow[sink_21,sink_12] 4.4020550214860865e+00
flow[sink_7,sink_5] 0
flow[sink_5,sink_17] -1.6354166666667197e+01
flow[sink_17,sink_4] -2.3490712459987904e+01
flow[sink_17,sink_8] -9.2176208733459610e+00
flow[sink_3,sink_23] 16.3541666666697
flow[sink_8,sink_20] -2.5571787540012629e+01
flow[sink_25,sink_20] 5.8719616865360109e+01
flow[sink_25,sink_15] -7.9480811015960469e+01
flow[sink_15,sink_29] -1.1218914434931139e+02
flow[sink_29,sink_28] 1.6354166666667879e+01
flow[sink_29,sink_2] 0
flow[sink_2,sink_15] -1.6354166666684250e+01
flow[sink_29,innode_7] -1.4489747768264556e+02
flow[innode_4,sink_19] 1.0728277717367058e+02
flow[sink_19,innode_3] 3.6392013815521892e+01
flow[innode_4,innode_5] 0
flow[sink_27,innode_5] 0
flow[sink_27,sink_19] -1.6354166666679703e+01
flow[sink_10,sink_11] 3.2708333333333641e+01
flow[sink_10,innode_2] -3.8182430024802315e+01
flow[sink_10,innode_3] -3.6392013815521892e+01
flow[innode_6,sink_25] -7.1963894930096481e+00
flow[sink_11,innode_1] 1.6354166666666970e+01
flow[sink_19,innode_2] 3.8182430024802315e+01
flow[source_3,innode_4] 1.0728277717367058e+02
flow[source_2,innode_7] 1.4489747768264556e+02
flow[sink_3,innode_8] 1.7743013349853706e+02
pressure[innode_1] 74.4971509056052
pressure[innode_2] 7.6666951338620365e+01
pressure[innode_3] 7.6586365344974411e+01
pressure[innode_4] 81.01325
pressure[innode_5] 81.01325
pressure[innode_6] 7.3465456962379477e+01
pressure[innode_7] 81.01325
pressure[innode_8] 8.0310837381185053e+01
pressure[source_1] 81.01325
pressure[source_2] 81.01325
pressure[source_3] 81.01325
pressure[sink_1] 4.3931090790972974e+01
pressure[sink_2] 7.3797623593878129e+01
pressure[sink_3] 8.0310837381185053e+01
pressure[sink_4] 5.8234818666264609e+01
pressure[sink_5] 5.6118813888919121e+01
pressure[sink_6] 4.6032168401360344e+01
pressure[sink_7] 4.5298227501126270e+01
pressure[sink_8] 5.7684885876615375e+01
pressure[sink_9] 5.3071422961248956e+01
pressure[sink_10] 7.4648852213208741e+01
pressure[sink_11] 74.4971509056052
pressure[sink_12] 1.0132500000000024e+00
pressure[sink_13] 7.3425784469732918e+01
pressure[sink_14] 7.3442173092055313e+01
pressure[sink_15] 7.3851016343644574e+01
pressure[sink_16] 7.3475501070787516e+01
pressure[sink_17] 5.7337081094273870e+01
pressure[sink_18] 48.7699460335935
pressure[sink_19] 7.6666951338620365e+01
pressure[sink_20] 5.9466879845175065e+01
pressure[sink_21] 2.5797421020545346e+00
pressure[sink_22] 4.4994859933327980e+01
pressure[sink_23] 8.0146119369525266e+01
pressure[sink_24] 2.8095979724209243e+00
pressure[sink_25] 7.3465456962379477e+01
pressure[sink_26] 6.1165609987214296e+01
pressure[sink_27] 7.6315821341476862e+01
pressure[sink_28] 7.6842527833588719e+01
pressure[sink_29] 77.1378101072059
interdiction[source_1,sink_3] 0
interdiction[innode_1,sink_16] 0
interdiction[innode_6,sink_13] 0
interdiction[sink_13,sink_14] 0
interdiction[sink_14,sink_10] 0
interdiction[sink_25,sink_26] 0
interdiction[sink_26,sink_9] 0
interdiction[sink_9,sink_18] 0
interdiction[sink_26,sink_4] 0
interdiction[sink_4,sink_20] 0
interdiction[sink_18,sink_6] 0
interdiction[sink_25,innode_8] 0
interdiction[sink_6,sink_7] 0
interdiction[sink_6,sink_22] 0
interdiction[sink_7,sink_24] 0
interdiction[sink_22,sink_1] 0
interdiction[sink_24,sink_21] 0
interdiction[sink_21,sink_12] 0
interdiction[sink_7,sink_5] 1
interdiction[sink_5,sink_17] 0
interdiction[sink_17,sink_4] 0
interdiction[sink_17,sink_8] 0
interdiction[sink_3,sink_23] 0
interdiction[sink_8,sink_20] 0
interdiction[sink_25,sink_20] 0
interdiction[sink_25,sink_15] 0
interdiction[sink_15,sink_29] 0
interdiction[sink_29,sink_28] 0
interdiction[sink_29,sink_2] 1
interdiction[sink_2,sink_15] 0
interdiction[sink_29,innode_7] 0
interdiction[innode_4,sink_19] 0
interdiction[sink_19,innode_3] 0
interdiction[innode_4,innode_5] 0
interdiction[sink_27,innode_5] 1
interdiction[sink_27,sink_19] 0
interdiction[sink_10,sink_11] 0
interdiction[sink_10,innode_2] 0
interdiction[sink_10,innode_3] 0
interdiction[innode_6,sink_25] 0
interdiction[sink_11,innode_1] 0
interdiction[sink_19,innode_2] 0
interdiction[source_3,innode_4] 0
interdiction[source_2,innode_7] 0
interdiction[sink_3,innode_8] 0
WCcheckFlow[source_1,sink_3] 39
WCcheckFlow[innode_1,sink_16] 1
WCcheckFlow[innode_6,sink_13] 13
WCcheckFlow[sink_13,sink_14] 12
WCcheckFlow[sink_14,sink_10] 11
WCcheckFlow[sink_25,sink_26] 15
WCcheckFlow[sink_26,sink_9] 9
WCcheckFlow[sink_9,sink_18] 8
WCcheckFlow[sink_26,sink_4] 5
WCcheckFlow[sink_4,sink_20] 1
WCcheckFlow[sink_18,sink_6] 7
WCcheckFlow[sink_25,innode_8] -36
WCcheckFlow[sink_6,sink_7] 4
WCcheckFlow[sink_6,sink_22] 2
WCcheckFlow[sink_7,sink_24] 3
WCcheckFlow[sink_22,sink_1] 1
WCcheckFlow[sink_24,sink_21] 2
WCcheckFlow[sink_21,sink_12] 1
WCcheckFlow[sink_7,sink_5] 0
WCcheckFlow[sink_5,sink_17] -1
WCcheckFlow[sink_17,sink_4] -3
WCcheckFlow[sink_17,sink_8] 1
WCcheckFlow[sink_3,sink_23] 1
WCcheckFlow[sink_8,sink_20] 0
WCcheckFlow[sink_25,sink_20] 0
WCcheckFlow[sink_25,sink_15] 6
WCcheckFlow[sink_15,sink_29] 4
WCcheckFlow[sink_29,sink_28] 1
WCcheckFlow[sink_29,sink_2] 0
WCcheckFlow[sink_2,sink_15] -1
WCcheckFlow[sink_29,innode_7] 2
WCcheckFlow[innode_4,sink_19] -3
WCcheckFlow[sink_19,innode_3] -5
WCcheckFlow[innode_4,innode_5] 1
WCcheckFlow[sink_27,innode_5] 0
WCcheckFlow[sink_27,sink_19] -1
WCcheckFlow[sink_10,sink_11] 3
WCcheckFlow[sink_10,innode_2] 1
WCcheckFlow[sink_10,innode_3] 6
WCcheckFlow[innode_6,sink_25] -14
WCcheckFlow[sink_11,innode_1] 2
WCcheckFlow[sink_19,innode_2] 0
WCcheckFlow[source_3,innode_4] -1
WCcheckFlow[source_2,innode_7] -1
WCcheckFlow[sink_3,innode_8] 37
